c *********************************
c * Circuit generated by BenCGen
c *
c * RippleCarryAdder_111_111_111_InOutT
c *
c * Ports with 1 gate(s): 1
c * Ports with 2 gate(s): 556
c * Total gates: 557
c *********************************
p cnf 779 1892
1 336 0
-1 -336 0
1 -335 0
336 -335 0
-1 -336 335 0
1 112 -338 0
-1 112 338 0
1 -112 338 0
-1 -112 -338 0
338 335 -223 0
-338 335 223 0
338 -335 223 0
-338 -335 -223 0
335 -339 0
338 -339 0
-335 -338 339 0
112 -340 0
1 -340 0
-112 -1 340 0
-339 337 0
-340 337 0
339 340 -337 0
2 113 -342 0
-2 113 342 0
2 -113 342 0
-2 -113 -342 0
342 337 -224 0
-342 337 224 0
342 -337 224 0
-342 -337 -224 0
337 -343 0
342 -343 0
-337 -342 343 0
113 -344 0
2 -344 0
-113 -2 344 0
-343 341 0
-344 341 0
343 344 -341 0
3 114 -346 0
-3 114 346 0
3 -114 346 0
-3 -114 -346 0
346 341 -225 0
-346 341 225 0
346 -341 225 0
-346 -341 -225 0
341 -347 0
346 -347 0
-341 -346 347 0
114 -348 0
3 -348 0
-114 -3 348 0
-347 345 0
-348 345 0
347 348 -345 0
4 115 -350 0
-4 115 350 0
4 -115 350 0
-4 -115 -350 0
350 345 -226 0
-350 345 226 0
350 -345 226 0
-350 -345 -226 0
345 -351 0
350 -351 0
-345 -350 351 0
115 -352 0
4 -352 0
-115 -4 352 0
-351 349 0
-352 349 0
351 352 -349 0
5 116 -354 0
-5 116 354 0
5 -116 354 0
-5 -116 -354 0
354 349 -227 0
-354 349 227 0
354 -349 227 0
-354 -349 -227 0
349 -355 0
354 -355 0
-349 -354 355 0
116 -356 0
5 -356 0
-116 -5 356 0
-355 353 0
-356 353 0
355 356 -353 0
6 117 -358 0
-6 117 358 0
6 -117 358 0
-6 -117 -358 0
358 353 -228 0
-358 353 228 0
358 -353 228 0
-358 -353 -228 0
353 -359 0
358 -359 0
-353 -358 359 0
117 -360 0
6 -360 0
-117 -6 360 0
-359 357 0
-360 357 0
359 360 -357 0
7 118 -362 0
-7 118 362 0
7 -118 362 0
-7 -118 -362 0
362 357 -229 0
-362 357 229 0
362 -357 229 0
-362 -357 -229 0
357 -363 0
362 -363 0
-357 -362 363 0
118 -364 0
7 -364 0
-118 -7 364 0
-363 361 0
-364 361 0
363 364 -361 0
8 119 -366 0
-8 119 366 0
8 -119 366 0
-8 -119 -366 0
366 361 -230 0
-366 361 230 0
366 -361 230 0
-366 -361 -230 0
361 -367 0
366 -367 0
-361 -366 367 0
119 -368 0
8 -368 0
-119 -8 368 0
-367 365 0
-368 365 0
367 368 -365 0
9 120 -370 0
-9 120 370 0
9 -120 370 0
-9 -120 -370 0
370 365 -231 0
-370 365 231 0
370 -365 231 0
-370 -365 -231 0
365 -371 0
370 -371 0
-365 -370 371 0
120 -372 0
9 -372 0
-120 -9 372 0
-371 369 0
-372 369 0
371 372 -369 0
10 121 -374 0
-10 121 374 0
10 -121 374 0
-10 -121 -374 0
374 369 -232 0
-374 369 232 0
374 -369 232 0
-374 -369 -232 0
369 -375 0
374 -375 0
-369 -374 375 0
121 -376 0
10 -376 0
-121 -10 376 0
-375 373 0
-376 373 0
375 376 -373 0
11 122 -378 0
-11 122 378 0
11 -122 378 0
-11 -122 -378 0
378 373 -233 0
-378 373 233 0
378 -373 233 0
-378 -373 -233 0
373 -379 0
378 -379 0
-373 -378 379 0
122 -380 0
11 -380 0
-122 -11 380 0
-379 377 0
-380 377 0
379 380 -377 0
12 123 -382 0
-12 123 382 0
12 -123 382 0
-12 -123 -382 0
382 377 -234 0
-382 377 234 0
382 -377 234 0
-382 -377 -234 0
377 -383 0
382 -383 0
-377 -382 383 0
123 -384 0
12 -384 0
-123 -12 384 0
-383 381 0
-384 381 0
383 384 -381 0
13 124 -386 0
-13 124 386 0
13 -124 386 0
-13 -124 -386 0
386 381 -235 0
-386 381 235 0
386 -381 235 0
-386 -381 -235 0
381 -387 0
386 -387 0
-381 -386 387 0
124 -388 0
13 -388 0
-124 -13 388 0
-387 385 0
-388 385 0
387 388 -385 0
14 125 -390 0
-14 125 390 0
14 -125 390 0
-14 -125 -390 0
390 385 -236 0
-390 385 236 0
390 -385 236 0
-390 -385 -236 0
385 -391 0
390 -391 0
-385 -390 391 0
125 -392 0
14 -392 0
-125 -14 392 0
-391 389 0
-392 389 0
391 392 -389 0
15 126 -394 0
-15 126 394 0
15 -126 394 0
-15 -126 -394 0
394 389 -237 0
-394 389 237 0
394 -389 237 0
-394 -389 -237 0
389 -395 0
394 -395 0
-389 -394 395 0
126 -396 0
15 -396 0
-126 -15 396 0
-395 393 0
-396 393 0
395 396 -393 0
16 127 -398 0
-16 127 398 0
16 -127 398 0
-16 -127 -398 0
398 393 -238 0
-398 393 238 0
398 -393 238 0
-398 -393 -238 0
393 -399 0
398 -399 0
-393 -398 399 0
127 -400 0
16 -400 0
-127 -16 400 0
-399 397 0
-400 397 0
399 400 -397 0
17 128 -402 0
-17 128 402 0
17 -128 402 0
-17 -128 -402 0
402 397 -239 0
-402 397 239 0
402 -397 239 0
-402 -397 -239 0
397 -403 0
402 -403 0
-397 -402 403 0
128 -404 0
17 -404 0
-128 -17 404 0
-403 401 0
-404 401 0
403 404 -401 0
18 129 -406 0
-18 129 406 0
18 -129 406 0
-18 -129 -406 0
406 401 -240 0
-406 401 240 0
406 -401 240 0
-406 -401 -240 0
401 -407 0
406 -407 0
-401 -406 407 0
129 -408 0
18 -408 0
-129 -18 408 0
-407 405 0
-408 405 0
407 408 -405 0
19 130 -410 0
-19 130 410 0
19 -130 410 0
-19 -130 -410 0
410 405 -241 0
-410 405 241 0
410 -405 241 0
-410 -405 -241 0
405 -411 0
410 -411 0
-405 -410 411 0
130 -412 0
19 -412 0
-130 -19 412 0
-411 409 0
-412 409 0
411 412 -409 0
20 131 -414 0
-20 131 414 0
20 -131 414 0
-20 -131 -414 0
414 409 -242 0
-414 409 242 0
414 -409 242 0
-414 -409 -242 0
409 -415 0
414 -415 0
-409 -414 415 0
131 -416 0
20 -416 0
-131 -20 416 0
-415 413 0
-416 413 0
415 416 -413 0
21 132 -418 0
-21 132 418 0
21 -132 418 0
-21 -132 -418 0
418 413 -243 0
-418 413 243 0
418 -413 243 0
-418 -413 -243 0
413 -419 0
418 -419 0
-413 -418 419 0
132 -420 0
21 -420 0
-132 -21 420 0
-419 417 0
-420 417 0
419 420 -417 0
22 133 -422 0
-22 133 422 0
22 -133 422 0
-22 -133 -422 0
422 417 -244 0
-422 417 244 0
422 -417 244 0
-422 -417 -244 0
417 -423 0
422 -423 0
-417 -422 423 0
133 -424 0
22 -424 0
-133 -22 424 0
-423 421 0
-424 421 0
423 424 -421 0
23 134 -426 0
-23 134 426 0
23 -134 426 0
-23 -134 -426 0
426 421 -245 0
-426 421 245 0
426 -421 245 0
-426 -421 -245 0
421 -427 0
426 -427 0
-421 -426 427 0
134 -428 0
23 -428 0
-134 -23 428 0
-427 425 0
-428 425 0
427 428 -425 0
24 135 -430 0
-24 135 430 0
24 -135 430 0
-24 -135 -430 0
430 425 -246 0
-430 425 246 0
430 -425 246 0
-430 -425 -246 0
425 -431 0
430 -431 0
-425 -430 431 0
135 -432 0
24 -432 0
-135 -24 432 0
-431 429 0
-432 429 0
431 432 -429 0
25 136 -434 0
-25 136 434 0
25 -136 434 0
-25 -136 -434 0
434 429 -247 0
-434 429 247 0
434 -429 247 0
-434 -429 -247 0
429 -435 0
434 -435 0
-429 -434 435 0
136 -436 0
25 -436 0
-136 -25 436 0
-435 433 0
-436 433 0
435 436 -433 0
26 137 -438 0
-26 137 438 0
26 -137 438 0
-26 -137 -438 0
438 433 -248 0
-438 433 248 0
438 -433 248 0
-438 -433 -248 0
433 -439 0
438 -439 0
-433 -438 439 0
137 -440 0
26 -440 0
-137 -26 440 0
-439 437 0
-440 437 0
439 440 -437 0
27 138 -442 0
-27 138 442 0
27 -138 442 0
-27 -138 -442 0
442 437 -249 0
-442 437 249 0
442 -437 249 0
-442 -437 -249 0
437 -443 0
442 -443 0
-437 -442 443 0
138 -444 0
27 -444 0
-138 -27 444 0
-443 441 0
-444 441 0
443 444 -441 0
28 139 -446 0
-28 139 446 0
28 -139 446 0
-28 -139 -446 0
446 441 -250 0
-446 441 250 0
446 -441 250 0
-446 -441 -250 0
441 -447 0
446 -447 0
-441 -446 447 0
139 -448 0
28 -448 0
-139 -28 448 0
-447 445 0
-448 445 0
447 448 -445 0
29 140 -450 0
-29 140 450 0
29 -140 450 0
-29 -140 -450 0
450 445 -251 0
-450 445 251 0
450 -445 251 0
-450 -445 -251 0
445 -451 0
450 -451 0
-445 -450 451 0
140 -452 0
29 -452 0
-140 -29 452 0
-451 449 0
-452 449 0
451 452 -449 0
30 141 -454 0
-30 141 454 0
30 -141 454 0
-30 -141 -454 0
454 449 -252 0
-454 449 252 0
454 -449 252 0
-454 -449 -252 0
449 -455 0
454 -455 0
-449 -454 455 0
141 -456 0
30 -456 0
-141 -30 456 0
-455 453 0
-456 453 0
455 456 -453 0
31 142 -458 0
-31 142 458 0
31 -142 458 0
-31 -142 -458 0
458 453 -253 0
-458 453 253 0
458 -453 253 0
-458 -453 -253 0
453 -459 0
458 -459 0
-453 -458 459 0
142 -460 0
31 -460 0
-142 -31 460 0
-459 457 0
-460 457 0
459 460 -457 0
32 143 -462 0
-32 143 462 0
32 -143 462 0
-32 -143 -462 0
462 457 -254 0
-462 457 254 0
462 -457 254 0
-462 -457 -254 0
457 -463 0
462 -463 0
-457 -462 463 0
143 -464 0
32 -464 0
-143 -32 464 0
-463 461 0
-464 461 0
463 464 -461 0
33 144 -466 0
-33 144 466 0
33 -144 466 0
-33 -144 -466 0
466 461 -255 0
-466 461 255 0
466 -461 255 0
-466 -461 -255 0
461 -467 0
466 -467 0
-461 -466 467 0
144 -468 0
33 -468 0
-144 -33 468 0
-467 465 0
-468 465 0
467 468 -465 0
34 145 -470 0
-34 145 470 0
34 -145 470 0
-34 -145 -470 0
470 465 -256 0
-470 465 256 0
470 -465 256 0
-470 -465 -256 0
465 -471 0
470 -471 0
-465 -470 471 0
145 -472 0
34 -472 0
-145 -34 472 0
-471 469 0
-472 469 0
471 472 -469 0
35 146 -474 0
-35 146 474 0
35 -146 474 0
-35 -146 -474 0
474 469 -257 0
-474 469 257 0
474 -469 257 0
-474 -469 -257 0
469 -475 0
474 -475 0
-469 -474 475 0
146 -476 0
35 -476 0
-146 -35 476 0
-475 473 0
-476 473 0
475 476 -473 0
36 147 -478 0
-36 147 478 0
36 -147 478 0
-36 -147 -478 0
478 473 -258 0
-478 473 258 0
478 -473 258 0
-478 -473 -258 0
473 -479 0
478 -479 0
-473 -478 479 0
147 -480 0
36 -480 0
-147 -36 480 0
-479 477 0
-480 477 0
479 480 -477 0
37 148 -482 0
-37 148 482 0
37 -148 482 0
-37 -148 -482 0
482 477 -259 0
-482 477 259 0
482 -477 259 0
-482 -477 -259 0
477 -483 0
482 -483 0
-477 -482 483 0
148 -484 0
37 -484 0
-148 -37 484 0
-483 481 0
-484 481 0
483 484 -481 0
38 149 -486 0
-38 149 486 0
38 -149 486 0
-38 -149 -486 0
486 481 -260 0
-486 481 260 0
486 -481 260 0
-486 -481 -260 0
481 -487 0
486 -487 0
-481 -486 487 0
149 -488 0
38 -488 0
-149 -38 488 0
-487 485 0
-488 485 0
487 488 -485 0
39 150 -490 0
-39 150 490 0
39 -150 490 0
-39 -150 -490 0
490 485 -261 0
-490 485 261 0
490 -485 261 0
-490 -485 -261 0
485 -491 0
490 -491 0
-485 -490 491 0
150 -492 0
39 -492 0
-150 -39 492 0
-491 489 0
-492 489 0
491 492 -489 0
40 151 -494 0
-40 151 494 0
40 -151 494 0
-40 -151 -494 0
494 489 -262 0
-494 489 262 0
494 -489 262 0
-494 -489 -262 0
489 -495 0
494 -495 0
-489 -494 495 0
151 -496 0
40 -496 0
-151 -40 496 0
-495 493 0
-496 493 0
495 496 -493 0
41 152 -498 0
-41 152 498 0
41 -152 498 0
-41 -152 -498 0
498 493 -263 0
-498 493 263 0
498 -493 263 0
-498 -493 -263 0
493 -499 0
498 -499 0
-493 -498 499 0
152 -500 0
41 -500 0
-152 -41 500 0
-499 497 0
-500 497 0
499 500 -497 0
42 153 -502 0
-42 153 502 0
42 -153 502 0
-42 -153 -502 0
502 497 -264 0
-502 497 264 0
502 -497 264 0
-502 -497 -264 0
497 -503 0
502 -503 0
-497 -502 503 0
153 -504 0
42 -504 0
-153 -42 504 0
-503 501 0
-504 501 0
503 504 -501 0
43 154 -506 0
-43 154 506 0
43 -154 506 0
-43 -154 -506 0
506 501 -265 0
-506 501 265 0
506 -501 265 0
-506 -501 -265 0
501 -507 0
506 -507 0
-501 -506 507 0
154 -508 0
43 -508 0
-154 -43 508 0
-507 505 0
-508 505 0
507 508 -505 0
44 155 -510 0
-44 155 510 0
44 -155 510 0
-44 -155 -510 0
510 505 -266 0
-510 505 266 0
510 -505 266 0
-510 -505 -266 0
505 -511 0
510 -511 0
-505 -510 511 0
155 -512 0
44 -512 0
-155 -44 512 0
-511 509 0
-512 509 0
511 512 -509 0
45 156 -514 0
-45 156 514 0
45 -156 514 0
-45 -156 -514 0
514 509 -267 0
-514 509 267 0
514 -509 267 0
-514 -509 -267 0
509 -515 0
514 -515 0
-509 -514 515 0
156 -516 0
45 -516 0
-156 -45 516 0
-515 513 0
-516 513 0
515 516 -513 0
46 157 -518 0
-46 157 518 0
46 -157 518 0
-46 -157 -518 0
518 513 -268 0
-518 513 268 0
518 -513 268 0
-518 -513 -268 0
513 -519 0
518 -519 0
-513 -518 519 0
157 -520 0
46 -520 0
-157 -46 520 0
-519 517 0
-520 517 0
519 520 -517 0
47 158 -522 0
-47 158 522 0
47 -158 522 0
-47 -158 -522 0
522 517 -269 0
-522 517 269 0
522 -517 269 0
-522 -517 -269 0
517 -523 0
522 -523 0
-517 -522 523 0
158 -524 0
47 -524 0
-158 -47 524 0
-523 521 0
-524 521 0
523 524 -521 0
48 159 -526 0
-48 159 526 0
48 -159 526 0
-48 -159 -526 0
526 521 -270 0
-526 521 270 0
526 -521 270 0
-526 -521 -270 0
521 -527 0
526 -527 0
-521 -526 527 0
159 -528 0
48 -528 0
-159 -48 528 0
-527 525 0
-528 525 0
527 528 -525 0
49 160 -530 0
-49 160 530 0
49 -160 530 0
-49 -160 -530 0
530 525 -271 0
-530 525 271 0
530 -525 271 0
-530 -525 -271 0
525 -531 0
530 -531 0
-525 -530 531 0
160 -532 0
49 -532 0
-160 -49 532 0
-531 529 0
-532 529 0
531 532 -529 0
50 161 -534 0
-50 161 534 0
50 -161 534 0
-50 -161 -534 0
534 529 -272 0
-534 529 272 0
534 -529 272 0
-534 -529 -272 0
529 -535 0
534 -535 0
-529 -534 535 0
161 -536 0
50 -536 0
-161 -50 536 0
-535 533 0
-536 533 0
535 536 -533 0
51 162 -538 0
-51 162 538 0
51 -162 538 0
-51 -162 -538 0
538 533 -273 0
-538 533 273 0
538 -533 273 0
-538 -533 -273 0
533 -539 0
538 -539 0
-533 -538 539 0
162 -540 0
51 -540 0
-162 -51 540 0
-539 537 0
-540 537 0
539 540 -537 0
52 163 -542 0
-52 163 542 0
52 -163 542 0
-52 -163 -542 0
542 537 -274 0
-542 537 274 0
542 -537 274 0
-542 -537 -274 0
537 -543 0
542 -543 0
-537 -542 543 0
163 -544 0
52 -544 0
-163 -52 544 0
-543 541 0
-544 541 0
543 544 -541 0
53 164 -546 0
-53 164 546 0
53 -164 546 0
-53 -164 -546 0
546 541 -275 0
-546 541 275 0
546 -541 275 0
-546 -541 -275 0
541 -547 0
546 -547 0
-541 -546 547 0
164 -548 0
53 -548 0
-164 -53 548 0
-547 545 0
-548 545 0
547 548 -545 0
54 165 -550 0
-54 165 550 0
54 -165 550 0
-54 -165 -550 0
550 545 -276 0
-550 545 276 0
550 -545 276 0
-550 -545 -276 0
545 -551 0
550 -551 0
-545 -550 551 0
165 -552 0
54 -552 0
-165 -54 552 0
-551 549 0
-552 549 0
551 552 -549 0
55 166 -554 0
-55 166 554 0
55 -166 554 0
-55 -166 -554 0
554 549 -277 0
-554 549 277 0
554 -549 277 0
-554 -549 -277 0
549 -555 0
554 -555 0
-549 -554 555 0
166 -556 0
55 -556 0
-166 -55 556 0
-555 553 0
-556 553 0
555 556 -553 0
56 167 -558 0
-56 167 558 0
56 -167 558 0
-56 -167 -558 0
558 553 -278 0
-558 553 278 0
558 -553 278 0
-558 -553 -278 0
553 -559 0
558 -559 0
-553 -558 559 0
167 -560 0
56 -560 0
-167 -56 560 0
-559 557 0
-560 557 0
559 560 -557 0
57 168 -562 0
-57 168 562 0
57 -168 562 0
-57 -168 -562 0
562 557 -279 0
-562 557 279 0
562 -557 279 0
-562 -557 -279 0
557 -563 0
562 -563 0
-557 -562 563 0
168 -564 0
57 -564 0
-168 -57 564 0
-563 561 0
-564 561 0
563 564 -561 0
58 169 -566 0
-58 169 566 0
58 -169 566 0
-58 -169 -566 0
566 561 -280 0
-566 561 280 0
566 -561 280 0
-566 -561 -280 0
561 -567 0
566 -567 0
-561 -566 567 0
169 -568 0
58 -568 0
-169 -58 568 0
-567 565 0
-568 565 0
567 568 -565 0
59 170 -570 0
-59 170 570 0
59 -170 570 0
-59 -170 -570 0
570 565 -281 0
-570 565 281 0
570 -565 281 0
-570 -565 -281 0
565 -571 0
570 -571 0
-565 -570 571 0
170 -572 0
59 -572 0
-170 -59 572 0
-571 569 0
-572 569 0
571 572 -569 0
60 171 -574 0
-60 171 574 0
60 -171 574 0
-60 -171 -574 0
574 569 -282 0
-574 569 282 0
574 -569 282 0
-574 -569 -282 0
569 -575 0
574 -575 0
-569 -574 575 0
171 -576 0
60 -576 0
-171 -60 576 0
-575 573 0
-576 573 0
575 576 -573 0
61 172 -578 0
-61 172 578 0
61 -172 578 0
-61 -172 -578 0
578 573 -283 0
-578 573 283 0
578 -573 283 0
-578 -573 -283 0
573 -579 0
578 -579 0
-573 -578 579 0
172 -580 0
61 -580 0
-172 -61 580 0
-579 577 0
-580 577 0
579 580 -577 0
62 173 -582 0
-62 173 582 0
62 -173 582 0
-62 -173 -582 0
582 577 -284 0
-582 577 284 0
582 -577 284 0
-582 -577 -284 0
577 -583 0
582 -583 0
-577 -582 583 0
173 -584 0
62 -584 0
-173 -62 584 0
-583 581 0
-584 581 0
583 584 -581 0
63 174 -586 0
-63 174 586 0
63 -174 586 0
-63 -174 -586 0
586 581 -285 0
-586 581 285 0
586 -581 285 0
-586 -581 -285 0
581 -587 0
586 -587 0
-581 -586 587 0
174 -588 0
63 -588 0
-174 -63 588 0
-587 585 0
-588 585 0
587 588 -585 0
64 175 -590 0
-64 175 590 0
64 -175 590 0
-64 -175 -590 0
590 585 -286 0
-590 585 286 0
590 -585 286 0
-590 -585 -286 0
585 -591 0
590 -591 0
-585 -590 591 0
175 -592 0
64 -592 0
-175 -64 592 0
-591 589 0
-592 589 0
591 592 -589 0
65 176 -594 0
-65 176 594 0
65 -176 594 0
-65 -176 -594 0
594 589 -287 0
-594 589 287 0
594 -589 287 0
-594 -589 -287 0
589 -595 0
594 -595 0
-589 -594 595 0
176 -596 0
65 -596 0
-176 -65 596 0
-595 593 0
-596 593 0
595 596 -593 0
66 177 -598 0
-66 177 598 0
66 -177 598 0
-66 -177 -598 0
598 593 -288 0
-598 593 288 0
598 -593 288 0
-598 -593 -288 0
593 -599 0
598 -599 0
-593 -598 599 0
177 -600 0
66 -600 0
-177 -66 600 0
-599 597 0
-600 597 0
599 600 -597 0
67 178 -602 0
-67 178 602 0
67 -178 602 0
-67 -178 -602 0
602 597 -289 0
-602 597 289 0
602 -597 289 0
-602 -597 -289 0
597 -603 0
602 -603 0
-597 -602 603 0
178 -604 0
67 -604 0
-178 -67 604 0
-603 601 0
-604 601 0
603 604 -601 0
68 179 -606 0
-68 179 606 0
68 -179 606 0
-68 -179 -606 0
606 601 -290 0
-606 601 290 0
606 -601 290 0
-606 -601 -290 0
601 -607 0
606 -607 0
-601 -606 607 0
179 -608 0
68 -608 0
-179 -68 608 0
-607 605 0
-608 605 0
607 608 -605 0
69 180 -610 0
-69 180 610 0
69 -180 610 0
-69 -180 -610 0
610 605 -291 0
-610 605 291 0
610 -605 291 0
-610 -605 -291 0
605 -611 0
610 -611 0
-605 -610 611 0
180 -612 0
69 -612 0
-180 -69 612 0
-611 609 0
-612 609 0
611 612 -609 0
70 181 -614 0
-70 181 614 0
70 -181 614 0
-70 -181 -614 0
614 609 -292 0
-614 609 292 0
614 -609 292 0
-614 -609 -292 0
609 -615 0
614 -615 0
-609 -614 615 0
181 -616 0
70 -616 0
-181 -70 616 0
-615 613 0
-616 613 0
615 616 -613 0
71 182 -618 0
-71 182 618 0
71 -182 618 0
-71 -182 -618 0
618 613 -293 0
-618 613 293 0
618 -613 293 0
-618 -613 -293 0
613 -619 0
618 -619 0
-613 -618 619 0
182 -620 0
71 -620 0
-182 -71 620 0
-619 617 0
-620 617 0
619 620 -617 0
72 183 -622 0
-72 183 622 0
72 -183 622 0
-72 -183 -622 0
622 617 -294 0
-622 617 294 0
622 -617 294 0
-622 -617 -294 0
617 -623 0
622 -623 0
-617 -622 623 0
183 -624 0
72 -624 0
-183 -72 624 0
-623 621 0
-624 621 0
623 624 -621 0
73 184 -626 0
-73 184 626 0
73 -184 626 0
-73 -184 -626 0
626 621 -295 0
-626 621 295 0
626 -621 295 0
-626 -621 -295 0
621 -627 0
626 -627 0
-621 -626 627 0
184 -628 0
73 -628 0
-184 -73 628 0
-627 625 0
-628 625 0
627 628 -625 0
74 185 -630 0
-74 185 630 0
74 -185 630 0
-74 -185 -630 0
630 625 -296 0
-630 625 296 0
630 -625 296 0
-630 -625 -296 0
625 -631 0
630 -631 0
-625 -630 631 0
185 -632 0
74 -632 0
-185 -74 632 0
-631 629 0
-632 629 0
631 632 -629 0
75 186 -634 0
-75 186 634 0
75 -186 634 0
-75 -186 -634 0
634 629 -297 0
-634 629 297 0
634 -629 297 0
-634 -629 -297 0
629 -635 0
634 -635 0
-629 -634 635 0
186 -636 0
75 -636 0
-186 -75 636 0
-635 633 0
-636 633 0
635 636 -633 0
76 187 -638 0
-76 187 638 0
76 -187 638 0
-76 -187 -638 0
638 633 -298 0
-638 633 298 0
638 -633 298 0
-638 -633 -298 0
633 -639 0
638 -639 0
-633 -638 639 0
187 -640 0
76 -640 0
-187 -76 640 0
-639 637 0
-640 637 0
639 640 -637 0
77 188 -642 0
-77 188 642 0
77 -188 642 0
-77 -188 -642 0
642 637 -299 0
-642 637 299 0
642 -637 299 0
-642 -637 -299 0
637 -643 0
642 -643 0
-637 -642 643 0
188 -644 0
77 -644 0
-188 -77 644 0
-643 641 0
-644 641 0
643 644 -641 0
78 189 -646 0
-78 189 646 0
78 -189 646 0
-78 -189 -646 0
646 641 -300 0
-646 641 300 0
646 -641 300 0
-646 -641 -300 0
641 -647 0
646 -647 0
-641 -646 647 0
189 -648 0
78 -648 0
-189 -78 648 0
-647 645 0
-648 645 0
647 648 -645 0
79 190 -650 0
-79 190 650 0
79 -190 650 0
-79 -190 -650 0
650 645 -301 0
-650 645 301 0
650 -645 301 0
-650 -645 -301 0
645 -651 0
650 -651 0
-645 -650 651 0
190 -652 0
79 -652 0
-190 -79 652 0
-651 649 0
-652 649 0
651 652 -649 0
80 191 -654 0
-80 191 654 0
80 -191 654 0
-80 -191 -654 0
654 649 -302 0
-654 649 302 0
654 -649 302 0
-654 -649 -302 0
649 -655 0
654 -655 0
-649 -654 655 0
191 -656 0
80 -656 0
-191 -80 656 0
-655 653 0
-656 653 0
655 656 -653 0
81 192 -658 0
-81 192 658 0
81 -192 658 0
-81 -192 -658 0
658 653 -303 0
-658 653 303 0
658 -653 303 0
-658 -653 -303 0
653 -659 0
658 -659 0
-653 -658 659 0
192 -660 0
81 -660 0
-192 -81 660 0
-659 657 0
-660 657 0
659 660 -657 0
82 193 -662 0
-82 193 662 0
82 -193 662 0
-82 -193 -662 0
662 657 -304 0
-662 657 304 0
662 -657 304 0
-662 -657 -304 0
657 -663 0
662 -663 0
-657 -662 663 0
193 -664 0
82 -664 0
-193 -82 664 0
-663 661 0
-664 661 0
663 664 -661 0
83 194 -666 0
-83 194 666 0
83 -194 666 0
-83 -194 -666 0
666 661 -305 0
-666 661 305 0
666 -661 305 0
-666 -661 -305 0
661 -667 0
666 -667 0
-661 -666 667 0
194 -668 0
83 -668 0
-194 -83 668 0
-667 665 0
-668 665 0
667 668 -665 0
84 195 -670 0
-84 195 670 0
84 -195 670 0
-84 -195 -670 0
670 665 -306 0
-670 665 306 0
670 -665 306 0
-670 -665 -306 0
665 -671 0
670 -671 0
-665 -670 671 0
195 -672 0
84 -672 0
-195 -84 672 0
-671 669 0
-672 669 0
671 672 -669 0
85 196 -674 0
-85 196 674 0
85 -196 674 0
-85 -196 -674 0
674 669 -307 0
-674 669 307 0
674 -669 307 0
-674 -669 -307 0
669 -675 0
674 -675 0
-669 -674 675 0
196 -676 0
85 -676 0
-196 -85 676 0
-675 673 0
-676 673 0
675 676 -673 0
86 197 -678 0
-86 197 678 0
86 -197 678 0
-86 -197 -678 0
678 673 -308 0
-678 673 308 0
678 -673 308 0
-678 -673 -308 0
673 -679 0
678 -679 0
-673 -678 679 0
197 -680 0
86 -680 0
-197 -86 680 0
-679 677 0
-680 677 0
679 680 -677 0
87 198 -682 0
-87 198 682 0
87 -198 682 0
-87 -198 -682 0
682 677 -309 0
-682 677 309 0
682 -677 309 0
-682 -677 -309 0
677 -683 0
682 -683 0
-677 -682 683 0
198 -684 0
87 -684 0
-198 -87 684 0
-683 681 0
-684 681 0
683 684 -681 0
88 199 -686 0
-88 199 686 0
88 -199 686 0
-88 -199 -686 0
686 681 -310 0
-686 681 310 0
686 -681 310 0
-686 -681 -310 0
681 -687 0
686 -687 0
-681 -686 687 0
199 -688 0
88 -688 0
-199 -88 688 0
-687 685 0
-688 685 0
687 688 -685 0
89 200 -690 0
-89 200 690 0
89 -200 690 0
-89 -200 -690 0
690 685 -311 0
-690 685 311 0
690 -685 311 0
-690 -685 -311 0
685 -691 0
690 -691 0
-685 -690 691 0
200 -692 0
89 -692 0
-200 -89 692 0
-691 689 0
-692 689 0
691 692 -689 0
90 201 -694 0
-90 201 694 0
90 -201 694 0
-90 -201 -694 0
694 689 -312 0
-694 689 312 0
694 -689 312 0
-694 -689 -312 0
689 -695 0
694 -695 0
-689 -694 695 0
201 -696 0
90 -696 0
-201 -90 696 0
-695 693 0
-696 693 0
695 696 -693 0
91 202 -698 0
-91 202 698 0
91 -202 698 0
-91 -202 -698 0
698 693 -313 0
-698 693 313 0
698 -693 313 0
-698 -693 -313 0
693 -699 0
698 -699 0
-693 -698 699 0
202 -700 0
91 -700 0
-202 -91 700 0
-699 697 0
-700 697 0
699 700 -697 0
92 203 -702 0
-92 203 702 0
92 -203 702 0
-92 -203 -702 0
702 697 -314 0
-702 697 314 0
702 -697 314 0
-702 -697 -314 0
697 -703 0
702 -703 0
-697 -702 703 0
203 -704 0
92 -704 0
-203 -92 704 0
-703 701 0
-704 701 0
703 704 -701 0
93 204 -706 0
-93 204 706 0
93 -204 706 0
-93 -204 -706 0
706 701 -315 0
-706 701 315 0
706 -701 315 0
-706 -701 -315 0
701 -707 0
706 -707 0
-701 -706 707 0
204 -708 0
93 -708 0
-204 -93 708 0
-707 705 0
-708 705 0
707 708 -705 0
94 205 -710 0
-94 205 710 0
94 -205 710 0
-94 -205 -710 0
710 705 -316 0
-710 705 316 0
710 -705 316 0
-710 -705 -316 0
705 -711 0
710 -711 0
-705 -710 711 0
205 -712 0
94 -712 0
-205 -94 712 0
-711 709 0
-712 709 0
711 712 -709 0
95 206 -714 0
-95 206 714 0
95 -206 714 0
-95 -206 -714 0
714 709 -317 0
-714 709 317 0
714 -709 317 0
-714 -709 -317 0
709 -715 0
714 -715 0
-709 -714 715 0
206 -716 0
95 -716 0
-206 -95 716 0
-715 713 0
-716 713 0
715 716 -713 0
96 207 -718 0
-96 207 718 0
96 -207 718 0
-96 -207 -718 0
718 713 -318 0
-718 713 318 0
718 -713 318 0
-718 -713 -318 0
713 -719 0
718 -719 0
-713 -718 719 0
207 -720 0
96 -720 0
-207 -96 720 0
-719 717 0
-720 717 0
719 720 -717 0
97 208 -722 0
-97 208 722 0
97 -208 722 0
-97 -208 -722 0
722 717 -319 0
-722 717 319 0
722 -717 319 0
-722 -717 -319 0
717 -723 0
722 -723 0
-717 -722 723 0
208 -724 0
97 -724 0
-208 -97 724 0
-723 721 0
-724 721 0
723 724 -721 0
98 209 -726 0
-98 209 726 0
98 -209 726 0
-98 -209 -726 0
726 721 -320 0
-726 721 320 0
726 -721 320 0
-726 -721 -320 0
721 -727 0
726 -727 0
-721 -726 727 0
209 -728 0
98 -728 0
-209 -98 728 0
-727 725 0
-728 725 0
727 728 -725 0
99 210 -730 0
-99 210 730 0
99 -210 730 0
-99 -210 -730 0
730 725 -321 0
-730 725 321 0
730 -725 321 0
-730 -725 -321 0
725 -731 0
730 -731 0
-725 -730 731 0
210 -732 0
99 -732 0
-210 -99 732 0
-731 729 0
-732 729 0
731 732 -729 0
100 211 -734 0
-100 211 734 0
100 -211 734 0
-100 -211 -734 0
734 729 -322 0
-734 729 322 0
734 -729 322 0
-734 -729 -322 0
729 -735 0
734 -735 0
-729 -734 735 0
211 -736 0
100 -736 0
-211 -100 736 0
-735 733 0
-736 733 0
735 736 -733 0
101 212 -738 0
-101 212 738 0
101 -212 738 0
-101 -212 -738 0
738 733 -323 0
-738 733 323 0
738 -733 323 0
-738 -733 -323 0
733 -739 0
738 -739 0
-733 -738 739 0
212 -740 0
101 -740 0
-212 -101 740 0
-739 737 0
-740 737 0
739 740 -737 0
102 213 -742 0
-102 213 742 0
102 -213 742 0
-102 -213 -742 0
742 737 -324 0
-742 737 324 0
742 -737 324 0
-742 -737 -324 0
737 -743 0
742 -743 0
-737 -742 743 0
213 -744 0
102 -744 0
-213 -102 744 0
-743 741 0
-744 741 0
743 744 -741 0
103 214 -746 0
-103 214 746 0
103 -214 746 0
-103 -214 -746 0
746 741 -325 0
-746 741 325 0
746 -741 325 0
-746 -741 -325 0
741 -747 0
746 -747 0
-741 -746 747 0
214 -748 0
103 -748 0
-214 -103 748 0
-747 745 0
-748 745 0
747 748 -745 0
104 215 -750 0
-104 215 750 0
104 -215 750 0
-104 -215 -750 0
750 745 -326 0
-750 745 326 0
750 -745 326 0
-750 -745 -326 0
745 -751 0
750 -751 0
-745 -750 751 0
215 -752 0
104 -752 0
-215 -104 752 0
-751 749 0
-752 749 0
751 752 -749 0
105 216 -754 0
-105 216 754 0
105 -216 754 0
-105 -216 -754 0
754 749 -327 0
-754 749 327 0
754 -749 327 0
-754 -749 -327 0
749 -755 0
754 -755 0
-749 -754 755 0
216 -756 0
105 -756 0
-216 -105 756 0
-755 753 0
-756 753 0
755 756 -753 0
106 217 -758 0
-106 217 758 0
106 -217 758 0
-106 -217 -758 0
758 753 -328 0
-758 753 328 0
758 -753 328 0
-758 -753 -328 0
753 -759 0
758 -759 0
-753 -758 759 0
217 -760 0
106 -760 0
-217 -106 760 0
-759 757 0
-760 757 0
759 760 -757 0
107 218 -762 0
-107 218 762 0
107 -218 762 0
-107 -218 -762 0
762 757 -329 0
-762 757 329 0
762 -757 329 0
-762 -757 -329 0
757 -763 0
762 -763 0
-757 -762 763 0
218 -764 0
107 -764 0
-218 -107 764 0
-763 761 0
-764 761 0
763 764 -761 0
108 219 -766 0
-108 219 766 0
108 -219 766 0
-108 -219 -766 0
766 761 -330 0
-766 761 330 0
766 -761 330 0
-766 -761 -330 0
761 -767 0
766 -767 0
-761 -766 767 0
219 -768 0
108 -768 0
-219 -108 768 0
-767 765 0
-768 765 0
767 768 -765 0
109 220 -770 0
-109 220 770 0
109 -220 770 0
-109 -220 -770 0
770 765 -331 0
-770 765 331 0
770 -765 331 0
-770 -765 -331 0
765 -771 0
770 -771 0
-765 -770 771 0
220 -772 0
109 -772 0
-220 -109 772 0
-771 769 0
-772 769 0
771 772 -769 0
110 221 -774 0
-110 221 774 0
110 -221 774 0
-110 -221 -774 0
774 769 -332 0
-774 769 332 0
774 -769 332 0
-774 -769 -332 0
769 -775 0
774 -775 0
-769 -774 775 0
221 -776 0
110 -776 0
-221 -110 776 0
-775 773 0
-776 773 0
775 776 -773 0
111 222 -777 0
-111 222 777 0
111 -222 777 0
-111 -222 -777 0
777 773 -333 0
-777 773 333 0
777 -773 333 0
-777 -773 -333 0
773 -778 0
777 -778 0
-773 -777 778 0
222 -779 0
111 -779 0
-222 -111 779 0
-778 334 0
-779 334 0
778 779 -334 0
